outputs/case_274.model.txt
severely_insufficient_measures_executed = True
capital_adequacy_ratio = 40
improvement_plan_executed = False
significantly_insufficient_measures_executed = False
net_worth = 100
improvement_plan_submitted = False
net_worth_ratio = 4
internal_control_executed = True
internal_handling_established = True
internal_handling_executed = True
internal_handling_ok = True
penalty = False
capital_severely_insufficient_measures_executed = True
capital_level = 4
internal_control_established = True
capital_significantly_insufficient_measures_executed = False
capital_insufficient_measures_executed = False
internal_control_ok = True